data/MCDM/NO_CORR/GEN_FROM_60/16_ITEMS_1000_GEN/K5016W19.KNP.txt
N 16
M 17
LC 16
LC 17
LC 18
LC 19
LC 20
LC 21
LC 22
LC 23
LC 24
LC 25
LC 26
LC 27
LC 28
LC 29
LC 30
LC 31
LR 1
LR 2
LR 3
LR 4
LR 5
LR 6
LR 7
LR 8
LR 9
LR 10
LR 11
LR 12
LR 13
LR 14
LR 15
LR 16
LR 17
LO -500
LO -346
LO -521
LO -229
LO -449
LO -192
LO -632
LO -185
LO -388
LO -918
LO -413
LO -997
LO -503
LO -959
LO -465
LO -409
OS 1
IC 638
IC 290
IC 480
IC 556
IC 477
IC 309
IC 991
IC 432
IC 98
IC 366
IC 891
IC 643
IC 123
IC 227
IC 796
IC 991
IB 4154
